120
1000
200
199
199
198
198
198
197
197
197
197
197
196
195
195
195
195
195
194
194
193
193
193
192
191
191
191
191
191
191
191
191
190
190
189
189
189
188
187
187
186
186
186
186
185
184
184
184
184
182
182
182
181
181
179
179
179
178
178
178
178
177
177
177
176
176
176
174
174
173
172
172
172
172
171
171
170
170
169
168
168
168
167
167
166
166
165
164
164
163
162
162
160
159
159
159
158
158
158
158
157
157
156
156
156
155
155
154
153
153
153
153
152
152
152
151
151
151
150
150
150
